c WMC file for PBN ISCAS/c1908_distill_ISCAS/c1908_miter written by probABC
p cnf 463 1275
39 6 8 0
-39 -6 0
-39 -8 0
40 -6 -8 0
-40 6 0
-40 8 0
41 39 40 0
-41 -39 0
-41 -40 0
42 -3 12 0
-42 3 0
-42 -12 0
43 3 -12 0
-43 -3 0
-43 12 0
44 42 43 0
-44 -42 0
-44 -43 0
45 -41 -44 0
-45 41 0
-45 44 0
46 41 44 0
-46 -41 0
-46 -44 0
47 45 46 0
-47 -45 0
-47 -46 0
48 -19 -23 0
-48 19 0
-48 23 0
49 33 -48 0
-49 -33 0
-49 48 0
50 -10 15 0
-50 10 0
-50 -15 0
51 10 -15 0
-51 -10 0
-51 15 0
52 50 51 0
-52 -50 0
-52 -51 0
53 -49 -52 0
-53 49 0
-53 52 0
54 49 52 0
-54 -49 0
-54 -52 0
55 53 54 0
-55 -53 0
-55 -54 0
56 47 55 0
-56 -47 0
-56 -55 0
57 -47 -55 0
-57 47 0
-57 55 0
58 31 56 0
-58 -31 0
-58 -56 0
59 57 -58 0
-59 -57 0
-59 58 0
60 -28 59 0
-60 28 0
-60 -59 0
61 28 -59 0
-61 -28 0
-61 59 0
62 60 61 0
-62 -60 0
-62 -61 0
63 9 14 0
-63 -9 0
-63 -14 0
64 -9 -14 0
-64 9 0
-64 14 0
65 63 64 0
-65 -63 0
-65 -64 0
66 -16 -65 0
-66 16 0
-66 65 0
67 16 65 0
-67 -16 0
-67 -65 0
68 66 67 0
-68 -66 0
-68 -67 0
69 -18 24 0
-69 18 0
-69 -24 0
70 33 -69 0
-70 -33 0
-70 69 0
71 -68 70 0
-71 68 0
-71 -70 0
72 68 -70 0
-72 -68 0
-72 70 0
73 71 72 0
-73 -71 0
-73 -72 0
74 5 8 0
-74 -5 0
-74 -8 0
75 -5 -8 0
-75 5 0
-75 8 0
76 74 75 0
-76 -74 0
-76 -75 0
77 -2 -76 0
-77 2 0
-77 76 0
78 2 76 0
-78 -2 0
-78 -76 0
79 77 78 0
-79 -77 0
-79 -78 0
80 -11 15 0
-80 11 0
-80 -15 0
81 11 -15 0
-81 -11 0
-81 15 0
82 80 81 0
-82 -80 0
-82 -81 0
83 -79 -82 0
-83 79 0
-83 82 0
84 79 82 0
-84 -79 0
-84 -82 0
85 83 84 0
-85 -83 0
-85 -84 0
86 73 85 0
-86 -73 0
-86 -85 0
87 -73 -85 0
-87 73 0
-87 85 0
88 31 86 0
-88 -31 0
-88 -86 0
89 87 -88 0
-89 -87 0
-89 88 0
90 -27 89 0
-90 27 0
-90 -89 0
91 27 -89 0
-91 -27 0
-91 89 0
92 90 91 0
-92 -90 0
-92 -91 0
93 -62 92 0
-93 62 0
-93 -92 0
94 -23 -24 0
-94 23 0
-94 24 0
95 -32 33 0
-95 32 0
-95 -33 0
96 94 -95 0
-96 -94 0
-96 95 0
97 -31 94 0
-97 31 0
-97 -94 0
98 30 -33 0
-98 -30 0
-98 33 0
99 -97 -98 0
-99 97 0
-99 98 0
100 96 99 0
-100 -96 0
-100 -99 0
101 -93 100 0
-101 93 0
-101 -100 0
102 -23 31 0
-102 23 0
-102 -31 0
103 -20 102 0
-103 20 0
-103 -102 0
104 15 16 0
-104 -15 0
-104 -16 0
105 -15 -16 0
-105 15 0
-105 16 0
106 104 105 0
-106 -104 0
-106 -105 0
107 -10 -106 0
-107 10 0
-107 106 0
108 10 106 0
-108 -10 0
-108 -106 0
109 107 108 0
-109 -107 0
-109 -108 0
110 12 13 0
-110 -12 0
-110 -13 0
111 -12 -13 0
-111 12 0
-111 13 0
112 110 111 0
-112 -110 0
-112 -111 0
113 -11 112 0
-113 11 0
-113 -112 0
114 11 -112 0
-114 -11 0
-114 112 0
115 113 114 0
-115 -113 0
-115 -114 0
116 -109 -115 0
-116 109 0
-116 115 0
117 109 115 0
-117 -109 0
-117 -115 0
118 116 117 0
-118 -116 0
-118 -117 0
119 -4 14 0
-119 4 0
-119 -14 0
120 4 -14 0
-120 -4 0
-120 14 0
121 119 120 0
-121 -119 0
-121 -120 0
122 2 3 0
-122 -2 0
-122 -3 0
123 -2 -3 0
-123 2 0
-123 3 0
124 122 123 0
-124 -122 0
-124 -123 0
125 -1 -124 0
-125 1 0
-125 124 0
126 1 124 0
-126 -1 0
-126 -124 0
127 125 126 0
-127 -125 0
-127 -126 0
128 -22 33 0
-128 22 0
-128 -33 0
129 -127 128 0
-129 127 0
-129 -128 0
130 127 -128 0
-130 -127 0
-130 128 0
131 129 130 0
-131 -129 0
-131 -130 0
132 -121 -131 0
-132 121 0
-132 131 0
133 121 131 0
-133 -121 0
-133 -131 0
134 132 133 0
-134 -132 0
-134 -133 0
135 118 -134 0
-135 -118 0
-135 134 0
136 -118 134 0
-136 118 0
-136 -134 0
137 31 135 0
-137 -31 0
-137 -135 0
138 136 -137 0
-138 -136 0
-138 137 0
139 -25 138 0
-139 25 0
-139 -138 0
140 25 -138 0
-140 -25 0
-140 138 0
141 139 140 0
-141 -139 0
-141 -140 0
142 103 141 0
-142 -103 0
-142 -141 0
143 24 31 0
-143 -24 0
-143 -31 0
144 -18 143 0
-144 18 0
-144 -143 0
145 -17 143 0
-145 17 0
-145 -143 0
146 -21 33 0
-146 21 0
-146 -33 0
147 -9 109 0
-147 9 0
-147 -109 0
148 9 -109 0
-148 -9 0
-148 109 0
149 147 148 0
-149 -147 0
-149 -148 0
150 -146 -149 0
-150 146 0
-150 149 0
151 146 149 0
-151 -146 0
-151 -149 0
152 150 151 0
-152 -150 0
-152 -151 0
153 -4 8 0
-153 4 0
-153 -8 0
154 4 -8 0
-154 -4 0
-154 8 0
155 153 154 0
-155 -153 0
-155 -154 0
156 6 7 0
-156 -6 0
-156 -7 0
157 -6 -7 0
-157 6 0
-157 7 0
158 156 157 0
-158 -156 0
-158 -157 0
159 -5 -158 0
-159 5 0
-159 158 0
160 5 158 0
-160 -5 0
-160 -158 0
161 159 160 0
-161 -159 0
-161 -160 0
162 -127 161 0
-162 127 0
-162 -161 0
163 127 -161 0
-163 -127 0
-163 161 0
164 162 163 0
-164 -162 0
-164 -163 0
165 -155 -164 0
-165 155 0
-165 164 0
166 155 164 0
-166 -155 0
-166 -164 0
167 165 166 0
-167 -165 0
-167 -166 0
168 152 -167 0
-168 -152 0
-168 167 0
169 -152 167 0
-169 152 0
-169 -167 0
170 31 168 0
-170 -31 0
-170 -168 0
171 169 -170 0
-171 -169 0
-171 170 0
172 145 -171 0
-172 -145 0
-172 171 0
173 -145 171 0
-173 145 0
-173 -171 0
174 172 173 0
-174 -172 0
-174 -173 0
175 144 -174 0
-175 -144 0
-175 174 0
176 -142 -175 0
-176 142 0
-176 175 0
177 -19 102 0
-177 19 0
-177 -102 0
178 4 68 0
-178 -4 0
-178 -68 0
179 -4 -68 0
-179 4 0
-179 68 0
180 178 179 0
-180 -178 0
-180 -179 0
181 -20 -23 0
-181 20 0
-181 23 0
182 33 -181 0
-182 -33 0
-182 181 0
183 -13 -182 0
-183 13 0
-183 182 0
184 13 182 0
-184 -13 0
-184 -182 0
185 183 184 0
-185 -183 0
-185 -184 0
186 -7 10 0
-186 7 0
-186 -10 0
187 7 -10 0
-187 -7 0
-187 10 0
188 186 187 0
-188 -186 0
-188 -187 0
189 -185 -188 0
-189 185 0
-189 188 0
190 185 188 0
-190 -185 0
-190 -188 0
191 189 190 0
-191 -189 0
-191 -190 0
192 -180 191 0
-192 180 0
-192 -191 0
193 180 -191 0
-193 -180 0
-193 191 0
194 31 192 0
-194 -31 0
-194 -192 0
195 193 -194 0
-195 -193 0
-195 194 0
196 -177 195 0
-196 177 0
-196 -195 0
197 177 -195 0
-197 -177 0
-197 195 0
198 196 197 0
-198 -196 0
-198 -197 0
199 -17 24 0
-199 17 0
-199 -24 0
200 33 -199 0
-200 -33 0
-200 199 0
201 1 200 0
-201 -1 0
-201 -200 0
202 -1 -200 0
-202 1 0
-202 200 0
203 201 202 0
-203 -201 0
-203 -202 0
204 118 161 0
-204 -118 0
-204 -161 0
205 -118 -161 0
-205 118 0
-205 161 0
206 204 205 0
-206 -204 0
-206 -205 0
207 203 -206 0
-207 -203 0
-207 206 0
208 -203 206 0
-208 203 0
-208 -206 0
209 31 207 0
-209 -31 0
-209 -207 0
210 208 -209 0
-210 -208 0
-210 209 0
211 -26 210 0
-211 26 0
-211 -210 0
212 26 -210 0
-212 -26 0
-212 210 0
213 211 212 0
-213 -211 0
-213 -212 0
214 198 -213 0
-214 -198 0
-214 213 0
215 -176 -214 0
-215 176 0
-215 214 0
216 -101 -215 0
-216 101 0
-216 215 0
217 144 174 0
-217 -144 0
-217 -174 0
218 103 -141 0
-218 -103 0
-218 141 0
219 -217 -218 0
-219 217 0
-219 218 0
220 -214 -219 0
-220 214 0
-220 219 0
221 -101 -220 0
-221 101 0
-221 220 0
222 62 -92 0
-222 -62 0
-222 92 0
223 100 -222 0
-223 -100 0
-223 222 0
224 -142 -217 0
-224 142 0
-224 217 0
225 198 213 0
-225 -198 0
-225 -213 0
226 -224 -225 0
-226 224 0
-226 225 0
227 -223 -226 0
-227 223 0
-227 226 0
228 -101 -226 0
-228 101 0
-228 226 0
229 -198 213 0
-229 198 0
-229 -213 0
230 -176 -229 0
-230 176 0
-230 229 0
231 -101 -230 0
-231 101 0
-231 230 0
232 62 92 0
-232 -62 0
-232 -92 0
233 -224 -229 0
-233 224 0
-233 229 0
234 100 -233 0
-234 -100 0
-234 233 0
235 -232 -234 0
-235 232 0
-235 234 0
236 -223 -230 0
-236 223 0
-236 230 0
237 -176 -225 0
-237 176 0
-237 225 0
238 -62 -92 0
-238 62 0
-238 92 0
239 100 -238 0
-239 -100 0
-239 238 0
240 -237 -239 0
-240 237 0
-240 239 0
241 216 221 0
-241 -216 0
-241 -221 0
242 227 228 0
-242 -227 0
-242 -228 0
243 231 236 0
-243 -231 0
-243 -236 0
244 240 -243 0
-244 -240 0
-244 243 0
245 -241 -242 0
-245 241 0
-245 242 0
246 235 -245 0
-246 -235 0
-246 245 0
247 -244 -246 0
-247 244 0
-247 246 0
248 -198 -213 0
-248 198 0
-248 213 0
249 -219 -248 0
-249 219 0
-249 248 0
250 -232 -249 0
-250 232 0
-250 249 0
251 29 -33 0
-251 -29 0
-251 33 0
252 -97 -251 0
-252 97 0
-252 251 0
253 96 252 0
-253 -96 0
-253 -252 0
254 -250 253 0
-254 250 0
-254 -253 0
255 -224 -248 0
-255 224 0
-255 248 0
256 -93 253 0
-256 93 0
-256 -253 0
257 -255 -256 0
-257 255 0
-257 256 0
258 -222 253 0
-258 222 0
-258 -253 0
259 -255 -258 0
-259 255 0
-259 258 0
260 -238 253 0
-260 238 0
-260 -253 0
261 -233 -260 0
-261 233 0
-261 260 0
262 -214 -224 0
-262 214 0
-262 224 0
263 -260 -262 0
-263 260 0
-263 262 0
264 -219 -225 0
-264 219 0
-264 225 0
265 -260 -264 0
-265 260 0
-265 264 0
266 -219 -229 0
-266 219 0
-266 229 0
267 -256 -266 0
-267 256 0
-267 266 0
268 -258 -266 0
-268 258 0
-268 266 0
269 257 259 0
-269 -257 0
-269 -259 0
270 261 263 0
-270 -261 0
-270 -263 0
271 265 267 0
-271 -265 0
-271 -267 0
272 268 -271 0
-272 -268 0
-272 271 0
273 -269 -270 0
-273 269 0
-273 270 0
274 254 -273 0
-274 -254 0
-274 273 0
275 -272 -274 0
-275 272 0
-275 274 0
276 -247 -275 0
-276 247 0
-276 275 0
277 -176 -248 0
-277 176 0
-277 248 0
278 -174 -218 0
-278 174 0
-278 218 0
279 144 229 0
-279 -144 0
-279 -229 0
280 -144 248 0
-280 144 0
-280 -248 0
281 -278 279 0
-281 278 0
-281 -279 0
282 280 -281 0
-282 -280 0
-282 281 0
283 -175 -218 0
-283 175 0
-283 218 0
284 -214 -283 0
-284 214 0
-284 283 0
285 -103 -141 0
-285 103 0
-285 141 0
286 -175 -285 0
-286 175 0
-286 285 0
287 -248 -286 0
-287 248 0
-287 286 0
288 277 284 0
-288 -277 0
-288 -284 0
289 287 -288 0
-289 -287 0
-289 288 0
290 282 -289 0
-290 -282 0
-290 289 0
291 249 -290 0
-291 -249 0
-291 290 0
292 -96 -238 0
-292 96 0
-292 238 0
293 291 -292 0
-293 -291 0
-293 292 0
294 -96 -248 0
-294 96 0
-294 248 0
295 -283 -294 0
-295 283 0
-295 294 0
296 232 238 0
-296 -232 0
-296 -238 0
297 -295 -296 0
-297 295 0
-297 296 0
298 293 297 0
-298 -293 0
-298 -297 0
299 -276 -298 0
-299 276 0
-299 298 0
300 -32 299 0
-300 32 0
-300 -299 0
301 -62 144 0
-301 62 0
-301 -144 0
302 -248 -301 0
-302 248 0
-302 301 0
303 -92 -278 0
-303 92 0
-303 278 0
304 -302 -303 0
-304 302 0
-304 303 0
305 33 304 0
-305 -33 0
-305 -304 0
306 300 -305 0
-306 -300 0
-306 305 0
307 -34 -92 0
-307 34 0
-307 92 0
308 34 92 0
-308 -34 0
-308 -92 0
309 307 308 0
-309 -307 0
-309 -308 0
310 -62 309 0
-310 62 0
-310 -309 0
311 100 -310 0
-311 -100 0
-311 310 0
312 -220 -311 0
-312 220 0
-312 311 0
313 -215 -311 0
-313 215 0
-313 311 0
314 62 -309 0
-314 -62 0
-314 309 0
315 100 -314 0
-315 -100 0
-315 314 0
316 -230 -315 0
-316 230 0
-316 315 0
317 -230 -311 0
-317 230 0
-317 311 0
318 -226 -315 0
-318 226 0
-318 315 0
319 -226 -311 0
-319 226 0
-319 311 0
320 -62 -309 0
-320 62 0
-320 309 0
321 100 -320 0
-321 -100 0
-321 320 0
322 -237 -321 0
-322 237 0
-322 321 0
323 62 309 0
-323 -62 0
-323 -309 0
324 -234 -323 0
-324 234 0
-324 323 0
325 312 313 0
-325 -312 0
-325 -313 0
326 316 317 0
-326 -316 0
-326 -317 0
327 318 319 0
-327 -318 0
-327 -319 0
328 322 -327 0
-328 -322 0
-328 327 0
329 -325 -326 0
-329 325 0
-329 326 0
330 324 -329 0
-330 -324 0
-330 329 0
331 -328 -330 0
-331 328 0
-331 330 0
332 36 249 0
-332 -36 0
-332 -249 0
333 -36 -249 0
-333 36 0
-333 249 0
334 332 333 0
-334 -332 0
-334 -333 0
335 -323 -334 0
-335 323 0
-335 334 0
336 253 -335 0
-336 -253 0
-336 335 0
337 253 -320 0
-337 -253 0
-337 320 0
338 -233 -337 0
-338 233 0
-338 337 0
339 253 -310 0
-339 -253 0
-339 310 0
340 -255 -339 0
-340 255 0
-340 339 0
341 -266 -339 0
-341 266 0
-341 339 0
342 -255 -314 0
-342 255 0
-342 314 0
343 35 342 0
-343 -35 0
-343 -342 0
344 -35 -342 0
-344 35 0
-344 342 0
345 343 344 0
-345 -343 0
-345 -344 0
346 253 -345 0
-346 -253 0
-346 345 0
347 -262 -337 0
-347 262 0
-347 337 0
348 -264 -337 0
-348 264 0
-348 337 0
349 253 -266 0
-349 -253 0
-349 266 0
350 -314 -349 0
-350 314 0
-350 349 0
351 338 340 0
-351 -338 0
-351 -340 0
352 341 347 0
-352 -341 0
-352 -347 0
353 348 -352 0
-353 -348 0
-353 352 0
354 350 -351 0
-354 -350 0
-354 351 0
355 -353 -354 0
-355 353 0
-355 354 0
356 336 -355 0
-356 -336 0
-356 355 0
357 346 -356 0
-357 -346 0
-357 356 0
358 -331 -357 0
-358 331 0
-358 357 0
359 -290 334 0
-359 290 0
-359 -334 0
360 -96 -320 0
-360 96 0
-360 320 0
361 359 -360 0
-361 -359 0
-361 360 0
362 -302 -309 0
-362 302 0
-362 309 0
363 -37 -362 0
-363 37 0
-363 362 0
364 37 362 0
-364 -37 0
-364 -362 0
365 -278 363 0
-365 278 0
-365 -363 0
366 364 -365 0
-366 -364 0
-366 365 0
367 320 323 0
-367 -320 0
-367 -323 0
368 -295 -367 0
-368 295 0
-368 367 0
369 -95 368 0
-369 95 0
-369 -368 0
370 366 -369 0
-370 -366 0
-370 369 0
371 361 -370 0
-371 -361 0
-371 370 0
372 -358 -371 0
-372 358 0
-372 371 0
373 32 33 0
-373 -32 0
-373 -33 0
374 366 -373 0
-374 -366 0
-374 373 0
375 372 374 0
-375 -372 0
-375 -374 0
376 -306 375 0
-376 306 0
-376 -375 0
377 306 -375 0
-377 -306 0
-377 375 0
378 376 377 0
-378 -376 0
-378 -377 0
379 -240 320 0
-379 240 0
-379 -320 0
380 -231 310 0
-380 231 0
-380 -310 0
381 259 -346 0
-381 -259 0
-381 346 0
382 -261 320 0
-382 261 0
-382 -320 0
383 92 -350 0
-383 -92 0
-383 350 0
384 238 -322 0
-384 -238 0
-384 322 0
385 93 -340 0
-385 -93 0
-385 340 0
386 -263 320 0
-386 263 0
-386 -320 0
387 93 -317 0
-387 -93 0
-387 317 0
388 -236 314 0
-388 236 0
-388 -314 0
389 222 -318 0
-389 -222 0
-389 318 0
390 238 -338 0
-390 -238 0
-390 338 0
391 -257 310 0
-391 257 0
-391 -310 0
392 222 -316 0
-392 -222 0
-392 316 0
393 -254 335 0
-393 254 0
-393 -335 0
394 -259 345 0
-394 259 0
-394 -345 0
395 250 -336 0
-395 -250 0
-395 336 0
396 238 -348 0
-396 -238 0
-396 348 0
397 93 -319 0
-397 -93 0
-397 319 0
398 238 -347 0
-398 -238 0
-398 347 0
399 -227 314 0
-399 227 0
-399 -314 0
400 -228 310 0
-400 228 0
-400 -310 0
401 -221 310 0
-401 221 0
-401 -310 0
402 93 -312 0
-402 -93 0
-402 312 0
403 -267 310 0
-403 267 0
-403 -310 0
404 -265 320 0
-404 265 0
-404 -320 0
405 -307 -349 0
-405 307 0
-405 349 0
406 -34 62 0
-406 34 0
-406 -62 0
407 -234 -406 0
-407 234 0
-407 406 0
408 -216 310 0
-408 216 0
-408 -310 0
409 93 -313 0
-409 -93 0
-409 313 0
410 247 331 0
-410 -247 0
-410 -331 0
411 -247 -331 0
-411 247 0
-411 331 0
412 33 410 0
-412 -33 0
-412 -410 0
413 411 -412 0
-413 -411 0
-413 412 0
414 275 357 0
-414 -275 0
-414 -357 0
415 -275 -357 0
-415 275 0
-415 357 0
416 33 414 0
-416 -33 0
-416 -414 0
417 415 -416 0
-417 -415 0
-417 416 0
418 32 -33 0
-418 -32 0
-418 33 0
419 25 26 0
-419 -25 0
-419 -26 0
420 27 28 0
-420 -27 0
-420 -28 0
421 -419 -420 0
-421 419 0
-421 420 0
422 145 -421 0
-422 -145 0
-422 421 0
423 177 -422 0
-423 -177 0
-423 422 0
424 276 358 0
-424 -276 0
-424 -358 0
425 -276 -358 0
-425 276 0
-425 358 0
426 -31 418 0
-426 31 0
-426 -418 0
427 423 -426 0
-427 -423 0
-427 426 0
428 424 -427 0
-428 -424 0
-428 427 0
429 425 -428 0
-429 -425 0
-429 428 0
430 379 380 0
-430 -379 0
-430 -380 0
431 382 384 0
-431 -382 0
-431 -384 0
432 385 386 0
-432 -385 0
-432 -386 0
433 387 388 0
-433 -387 0
-433 -388 0
434 389 390 0
-434 -389 0
-434 -390 0
435 391 392 0
-435 -391 0
-435 -392 0
436 396 397 0
-436 -396 0
-436 -397 0
437 398 399 0
-437 -398 0
-437 -399 0
438 400 401 0
-438 -400 0
-438 -401 0
439 402 403 0
-439 -402 0
-439 -403 0
440 404 405 0
-440 -404 0
-440 -405 0
441 407 408 0
-441 -407 0
-441 -408 0
442 409 -441 0
-442 -409 0
-442 441 0
443 -439 -440 0
-443 439 0
-443 440 0
444 -437 -438 0
-444 437 0
-444 438 0
445 -435 -436 0
-445 435 0
-445 436 0
446 -433 -434 0
-446 433 0
-446 434 0
447 -431 -432 0
-447 431 0
-447 432 0
448 383 -430 0
-448 -383 0
-448 430 0
449 -447 -448 0
-449 447 0
-449 448 0
450 -445 -446 0
-450 445 0
-450 446 0
451 -443 -444 0
-451 443 0
-451 444 0
452 393 -442 0
-452 -393 0
-452 442 0
453 394 -452 0
-453 -394 0
-453 452 0
454 -450 -451 0
-454 450 0
-454 451 0
455 381 -449 0
-455 -381 0
-455 449 0
456 395 -455 0
-456 -395 0
-456 455 0
457 -453 -454 0
-457 453 0
-457 454 0
458 -456 -457 0
-458 456 0
-458 457 0
459 413 -458 0
-459 -413 0
-459 458 0
460 417 -459 0
-460 -417 0
-460 459 0
461 429 -460 0
-461 -429 0
-461 460 0
462 378 -461 0
-462 -378 0
-462 461 0
38 462 0
-38 -462 0
38 0
w 1 0.500000
w 2 0.500000
w 3 0.500000
w 4 0.500000
w 5 0.500000
w 6 0.500000
w 7 0.500000
w 8 0.500000
w 9 0.500000
w 10 0.500000
w 11 0.500000
w 12 0.500000
w 13 0.500000
w 14 0.500000
w 15 0.500000
w 16 0.500000
w 17 0.500000
w 18 0.500000
w 19 0.500000
w 20 0.500000
w 21 0.500000
w 22 0.500000
w 23 0.500000
w 24 0.500000
w 25 0.500000
w 26 0.500000
w 27 0.500000
w 28 0.500000
w 29 0.500000
w 30 0.500000
w 31 0.500000
w 32 0.500000
w 33 0.500000
w 34 0.125000
w 35 0.125000
w 36 0.125000
w 37 0.125000
w 39 -1
w 40 -1
w 41 -1
w 42 -1
w 43 -1
w 44 -1
w 45 -1
w 46 -1
w 47 -1
w 48 -1
w 49 -1
w 50 -1
w 51 -1
w 52 -1
w 53 -1
w 54 -1
w 55 -1
w 56 -1
w 57 -1
w 58 -1
w 59 -1
w 60 -1
w 61 -1
w 62 -1
w 63 -1
w 64 -1
w 65 -1
w 66 -1
w 67 -1
w 68 -1
w 69 -1
w 70 -1
w 71 -1
w 72 -1
w 73 -1
w 74 -1
w 75 -1
w 76 -1
w 77 -1
w 78 -1
w 79 -1
w 80 -1
w 81 -1
w 82 -1
w 83 -1
w 84 -1
w 85 -1
w 86 -1
w 87 -1
w 88 -1
w 89 -1
w 90 -1
w 91 -1
w 92 -1
w 93 -1
w 94 -1
w 95 -1
w 96 -1
w 97 -1
w 98 -1
w 99 -1
w 100 -1
w 101 -1
w 102 -1
w 103 -1
w 104 -1
w 105 -1
w 106 -1
w 107 -1
w 108 -1
w 109 -1
w 110 -1
w 111 -1
w 112 -1
w 113 -1
w 114 -1
w 115 -1
w 116 -1
w 117 -1
w 118 -1
w 119 -1
w 120 -1
w 121 -1
w 122 -1
w 123 -1
w 124 -1
w 125 -1
w 126 -1
w 127 -1
w 128 -1
w 129 -1
w 130 -1
w 131 -1
w 132 -1
w 133 -1
w 134 -1
w 135 -1
w 136 -1
w 137 -1
w 138 -1
w 139 -1
w 140 -1
w 141 -1
w 142 -1
w 143 -1
w 144 -1
w 145 -1
w 146 -1
w 147 -1
w 148 -1
w 149 -1
w 150 -1
w 151 -1
w 152 -1
w 153 -1
w 154 -1
w 155 -1
w 156 -1
w 157 -1
w 158 -1
w 159 -1
w 160 -1
w 161 -1
w 162 -1
w 163 -1
w 164 -1
w 165 -1
w 166 -1
w 167 -1
w 168 -1
w 169 -1
w 170 -1
w 171 -1
w 172 -1
w 173 -1
w 174 -1
w 175 -1
w 176 -1
w 177 -1
w 178 -1
w 179 -1
w 180 -1
w 181 -1
w 182 -1
w 183 -1
w 184 -1
w 185 -1
w 186 -1
w 187 -1
w 188 -1
w 189 -1
w 190 -1
w 191 -1
w 192 -1
w 193 -1
w 194 -1
w 195 -1
w 196 -1
w 197 -1
w 198 -1
w 199 -1
w 200 -1
w 201 -1
w 202 -1
w 203 -1
w 204 -1
w 205 -1
w 206 -1
w 207 -1
w 208 -1
w 209 -1
w 210 -1
w 211 -1
w 212 -1
w 213 -1
w 214 -1
w 215 -1
w 216 -1
w 217 -1
w 218 -1
w 219 -1
w 220 -1
w 221 -1
w 222 -1
w 223 -1
w 224 -1
w 225 -1
w 226 -1
w 227 -1
w 228 -1
w 229 -1
w 230 -1
w 231 -1
w 232 -1
w 233 -1
w 234 -1
w 235 -1
w 236 -1
w 237 -1
w 238 -1
w 239 -1
w 240 -1
w 241 -1
w 242 -1
w 243 -1
w 244 -1
w 245 -1
w 246 -1
w 247 -1
w 248 -1
w 249 -1
w 250 -1
w 251 -1
w 252 -1
w 253 -1
w 254 -1
w 255 -1
w 256 -1
w 257 -1
w 258 -1
w 259 -1
w 260 -1
w 261 -1
w 262 -1
w 263 -1
w 264 -1
w 265 -1
w 266 -1
w 267 -1
w 268 -1
w 269 -1
w 270 -1
w 271 -1
w 272 -1
w 273 -1
w 274 -1
w 275 -1
w 276 -1
w 277 -1
w 278 -1
w 279 -1
w 280 -1
w 281 -1
w 282 -1
w 283 -1
w 284 -1
w 285 -1
w 286 -1
w 287 -1
w 288 -1
w 289 -1
w 290 -1
w 291 -1
w 292 -1
w 293 -1
w 294 -1
w 295 -1
w 296 -1
w 297 -1
w 298 -1
w 299 -1
w 300 -1
w 301 -1
w 302 -1
w 303 -1
w 304 -1
w 305 -1
w 306 -1
w 307 -1
w 308 -1
w 309 -1
w 310 -1
w 311 -1
w 312 -1
w 313 -1
w 314 -1
w 315 -1
w 316 -1
w 317 -1
w 318 -1
w 319 -1
w 320 -1
w 321 -1
w 322 -1
w 323 -1
w 324 -1
w 325 -1
w 326 -1
w 327 -1
w 328 -1
w 329 -1
w 330 -1
w 331 -1
w 332 -1
w 333 -1
w 334 -1
w 335 -1
w 336 -1
w 337 -1
w 338 -1
w 339 -1
w 340 -1
w 341 -1
w 342 -1
w 343 -1
w 344 -1
w 345 -1
w 346 -1
w 347 -1
w 348 -1
w 349 -1
w 350 -1
w 351 -1
w 352 -1
w 353 -1
w 354 -1
w 355 -1
w 356 -1
w 357 -1
w 358 -1
w 359 -1
w 360 -1
w 361 -1
w 362 -1
w 363 -1
w 364 -1
w 365 -1
w 366 -1
w 367 -1
w 368 -1
w 369 -1
w 370 -1
w 371 -1
w 372 -1
w 373 -1
w 374 -1
w 375 -1
w 376 -1
w 377 -1
w 378 -1
w 379 -1
w 380 -1
w 381 -1
w 382 -1
w 383 -1
w 384 -1
w 385 -1
w 386 -1
w 387 -1
w 388 -1
w 389 -1
w 390 -1
w 391 -1
w 392 -1
w 393 -1
w 394 -1
w 395 -1
w 396 -1
w 397 -1
w 398 -1
w 399 -1
w 400 -1
w 401 -1
w 402 -1
w 403 -1
w 404 -1
w 405 -1
w 406 -1
w 407 -1
w 408 -1
w 409 -1
w 410 -1
w 411 -1
w 412 -1
w 413 -1
w 414 -1
w 415 -1
w 416 -1
w 417 -1
w 418 -1
w 419 -1
w 420 -1
w 421 -1
w 422 -1
w 423 -1
w 424 -1
w 425 -1
w 426 -1
w 427 -1
w 428 -1
w 429 -1
w 430 -1
w 431 -1
w 432 -1
w 433 -1
w 434 -1
w 435 -1
w 436 -1
w 437 -1
w 438 -1
w 439 -1
w 440 -1
w 441 -1
w 442 -1
w 443 -1
w 444 -1
w 445 -1
w 446 -1
w 447 -1
w 448 -1
w 449 -1
w 450 -1
w 451 -1
w 452 -1
w 453 -1
w 454 -1
w 455 -1
w 456 -1
w 457 -1
w 458 -1
w 459 -1
w 460 -1
w 461 -1
w 462 -1
w 38 -1
